NAME: bip_20_1
TYPE: TSP
COMMENT: bip_20_1
DIMENSION: 20
EDGE_WEIGHT_TYPE: EUC_2D
NODE_COORD_SECTION
1 26 35
2 50 81
3 67 88
4 36 37
5 57 95
6 44 81
7 91 75
8 70 16
9 59 37
10 47 32
11 415 432
12 415 417
13 440 402
14 437 489
15 400 496
16 436 423
17 475 430
18 478 476
19 449 400
20 417 479
